(declare-const c_init Int)
(declare-const x_init Int)
(declare-const y_init Int)
(declare-const c_0 Int)
(declare-const c_1 Int)
(declare-const c_2 Int)
(declare-const c_3 Int)
(declare-const c_4 Int)
(declare-const c_5 Int)
(declare-const c_6 Int)
(declare-const c_7 Int)
(declare-const c_8 Int)
(declare-const c_9 Int)
(declare-const c_10 Int)
(declare-const c_11 Int)
(declare-const c_12 Int)
(declare-const c_13 Int)
(declare-const c_14 Int)
(declare-const c_15 Int)
(declare-const c_16 Int)
(declare-const c_17 Int)
(declare-const c_18 Int)
(declare-const c_19 Int)
(declare-const c_20 Int)
(declare-const c_21 Int)
(declare-const c_22 Int)
(declare-const c_23 Int)
(declare-const c_24 Int)
(declare-const c_25 Int)
(declare-const c_26 Int)
(declare-const c_27 Int)
(declare-const c_28 Int)
(declare-const c_29 Int)
(declare-const c_30 Int)
(declare-const c_31 Int)
(declare-const c_32 Int)
(declare-const c_33 Int)
(declare-const c_34 Int)
(declare-const c_35 Int)
(assert (< c_0 0))
(assert (and (>= (+ (* 1 c_1 ) (* (- 1) c_init ) ) 0) (>= (+ (* (- 1) c_1 ) (* 1 c_init ) ) 0) (>= (+ (* 1 c_2 ) (* (- 1) x_init ) ) 0) (>= (+ (* (- 1) c_2 ) (* 1 x_init ) ) 0) (>= (+ (* 1 c_3 ) (* (- 1) y_init ) ) 0) (>= (+ (* (- 1) c_3 ) (* 1 y_init ) ) 0) ))
(assert (forall ((c Real) (x Real) (y Real) ) (=> (and (>= (+ (* (- 1) 1) (* (- 1) c_20 ) (* (- 1) c_22 x ) (* (- 1) c_23 y ) ) 0) (>= (+ (* (- 1) c ) (* 1 c_1 ) ) 0) (>= (+ (* 1 c ) (* (- 1) c_1 ) ) 0) (>= (+ (* 1 c_2 ) (* (- 1) x ) ) 0) (>= (+ (* (- 1) c_2 ) (* 1 x ) ) 0) (>= (+ (* 1 c_3 ) (* (- 1) y ) ) 0) (>= (+ (* (- 1) c_3 ) (* 1 y ) ) 0) ) (>= (+ (* 1 c_28 ) (* 1 c_30 x ) (* 1 c_31 y ) ) 0) )))
(assert (forall ((c Real) (x Real) (y Real) ) (=> (and (>= (+ (* (- 1) 1) (* (- 1) c_20 ) (* (- 1) c_22 x ) (* (- 1) c_23 y ) ) 0) (>= (+ (* (- 1) c ) (* 1 c_1 ) ) 0) (>= (+ (* 1 c ) (* (- 1) c_1 ) ) 0) (>= (+ (* 1 c_2 ) (* (- 1) x ) ) 0) (>= (+ (* (- 1) c_2 ) (* 1 x ) ) 0) (>= (+ (* 1 c_3 ) (* (- 1) y ) ) 0) (>= (+ (* (- 1) c_3 ) (* 1 y ) ) 0) ) (>= (+ (* 1 c_32 ) (* 1 c_34 x ) (* 1 c_35 y ) ) 0) )))
(assert (forall ((c Real) (x Real) (y Real) ) (=> (and (>= (+ (* (- 1) 1) (* (- 1) c_24 ) (* (- 1) c_26 x ) (* (- 1) c_27 y ) ) 0) (>= (+ (* (- 1) c ) (* 1 c_1 ) ) 0) (>= (+ (* 1 c ) (* (- 1) c_1 ) ) 0) (>= (+ (* 1 c_2 ) (* (- 1) x ) ) 0) (>= (+ (* (- 1) c_2 ) (* 1 x ) ) 0) (>= (+ (* 1 c_3 ) (* (- 1) y ) ) 0) (>= (+ (* (- 1) c_3 ) (* 1 y ) ) 0) ) (>= (+ (* 1 c_28 ) (* 1 c_30 x ) (* 1 c_31 y ) ) 0) )))
(assert (forall ((c Real) (x Real) (y Real) ) (=> (and (>= (+ (* (- 1) 1) (* (- 1) c_24 ) (* (- 1) c_26 x ) (* (- 1) c_27 y ) ) 0) (>= (+ (* (- 1) c ) (* 1 c_1 ) ) 0) (>= (+ (* 1 c ) (* (- 1) c_1 ) ) 0) (>= (+ (* 1 c_2 ) (* (- 1) x ) ) 0) (>= (+ (* (- 1) c_2 ) (* 1 x ) ) 0) (>= (+ (* 1 c_3 ) (* (- 1) y ) ) 0) (>= (+ (* (- 1) c_3 ) (* 1 y ) ) 0) ) (>= (+ (* 1 c_32 ) (* 1 c_34 x ) (* 1 c_35 y ) ) 0) )))
(assert (forall ((c Real) (x Real) (y Real) ) (=> (and (>= (+ (* (- 1) 1) (* (- 1) c c_5 ) (* (- 1) c_4 ) (* (- 1) c_5 ) (* (- 1) c_6 x ) (* (- 1) c_7 ) (* (- 1) c_7 y ) ) 0) (>= (+ (* (- 1) 1) (* 1 x ) (* (- 1) y ) ) 0) (>= (+ (* 1 c c_5 ) (* 1 c_4 ) (* 1 c_6 x ) (* 1 c_7 y ) ) 0) (>= (+ (* 1 c c_9 ) (* 1 c_10 x ) (* 1 c_11 y ) (* 1 c_8 ) ) 0) ) (>= (+ (* 1 c c_13 ) (* 1 c_12 ) (* 1 c_13 ) (* 1 c_14 x ) (* 1 c_15 ) (* 1 c_15 y ) ) 0) )))
(assert (forall ((c Real) (x Real) (y Real) ) (=> (and (>= (+ (* (- 1) 1) (* (- 1) c c_5 ) (* (- 1) c_4 ) (* (- 1) c_5 ) (* (- 1) c_6 x ) (* (- 1) c_7 ) (* (- 1) c_7 y ) ) 0) (>= (+ (* (- 1) 1) (* 1 x ) (* (- 1) y ) ) 0) (>= (+ (* 1 c c_5 ) (* 1 c_4 ) (* 1 c_6 x ) (* 1 c_7 y ) ) 0) (>= (+ (* 1 c c_9 ) (* 1 c_10 x ) (* 1 c_11 y ) (* 1 c_8 ) ) 0) ) (>= (+ (* 1 c c_17 ) (* 1 c_16 ) (* 1 c_17 ) (* 1 c_18 x ) (* 1 c_19 ) (* 1 c_19 y ) ) 0) )))
(assert (forall ((c Real) (x Real) (y Real) ) (=> (and (>= (+ (* (- 1) 1) (* (- 1) c c_9 ) (* (- 1) c_10 x ) (* (- 1) c_11 ) (* (- 1) c_11 y ) (* (- 1) c_8 ) (* (- 1) c_9 ) ) 0) (>= (+ (* (- 1) 1) (* 1 x ) (* (- 1) y ) ) 0) (>= (+ (* 1 c c_5 ) (* 1 c_4 ) (* 1 c_6 x ) (* 1 c_7 y ) ) 0) (>= (+ (* 1 c c_9 ) (* 1 c_10 x ) (* 1 c_11 y ) (* 1 c_8 ) ) 0) ) (>= (+ (* 1 c c_13 ) (* 1 c_12 ) (* 1 c_13 ) (* 1 c_14 x ) (* 1 c_15 ) (* 1 c_15 y ) ) 0) )))
(assert (forall ((c Real) (x Real) (y Real) ) (=> (and (>= (+ (* (- 1) 1) (* (- 1) c c_9 ) (* (- 1) c_10 x ) (* (- 1) c_11 ) (* (- 1) c_11 y ) (* (- 1) c_8 ) (* (- 1) c_9 ) ) 0) (>= (+ (* (- 1) 1) (* 1 x ) (* (- 1) y ) ) 0) (>= (+ (* 1 c c_5 ) (* 1 c_4 ) (* 1 c_6 x ) (* 1 c_7 y ) ) 0) (>= (+ (* 1 c c_9 ) (* 1 c_10 x ) (* 1 c_11 y ) (* 1 c_8 ) ) 0) ) (>= (+ (* 1 c c_17 ) (* 1 c_16 ) (* 1 c_17 ) (* 1 c_18 x ) (* 1 c_19 ) (* 1 c_19 y ) ) 0) )))
(assert (forall ((c Real) (x Real) (y Real) ) (=> (and (>= (+ (* (- 1) 1) (* (- 1) c c_5 ) (* (- 1) c_4 ) (* (- 1) c_5 ) (* (- 1) c_6 x ) (* (- 1) c_7 ) (* (- 1) c_7 y ) ) 0) (>= (+ (* (- 1) 1) (* 1 x ) (* (- 1) y ) ) 0) (>= (+ (* 1 c c_13 ) (* 1 c_12 ) (* 1 c_14 x ) (* 1 c_15 y ) ) 0) (>= (+ (* 1 c c_17 ) (* 1 c_16 ) (* 1 c_18 x ) (* 1 c_19 y ) ) 0) ) (>= (+ (* 1 c c_13 ) (* 1 c_12 ) (* 1 c_13 ) (* 1 c_14 x ) (* 1 c_15 ) (* 1 c_15 y ) ) 0) )))
(assert (forall ((c Real) (x Real) (y Real) ) (=> (and (>= (+ (* (- 1) 1) (* (- 1) c c_5 ) (* (- 1) c_4 ) (* (- 1) c_5 ) (* (- 1) c_6 x ) (* (- 1) c_7 ) (* (- 1) c_7 y ) ) 0) (>= (+ (* (- 1) 1) (* 1 x ) (* (- 1) y ) ) 0) (>= (+ (* 1 c c_13 ) (* 1 c_12 ) (* 1 c_14 x ) (* 1 c_15 y ) ) 0) (>= (+ (* 1 c c_17 ) (* 1 c_16 ) (* 1 c_18 x ) (* 1 c_19 y ) ) 0) ) (>= (+ (* 1 c c_17 ) (* 1 c_16 ) (* 1 c_17 ) (* 1 c_18 x ) (* 1 c_19 ) (* 1 c_19 y ) ) 0) )))
(assert (forall ((c Real) (x Real) (y Real) ) (=> (and (>= (+ (* (- 1) 1) (* (- 1) c c_9 ) (* (- 1) c_10 x ) (* (- 1) c_11 ) (* (- 1) c_11 y ) (* (- 1) c_8 ) (* (- 1) c_9 ) ) 0) (>= (+ (* (- 1) 1) (* 1 x ) (* (- 1) y ) ) 0) (>= (+ (* 1 c c_13 ) (* 1 c_12 ) (* 1 c_14 x ) (* 1 c_15 y ) ) 0) (>= (+ (* 1 c c_17 ) (* 1 c_16 ) (* 1 c_18 x ) (* 1 c_19 y ) ) 0) ) (>= (+ (* 1 c c_13 ) (* 1 c_12 ) (* 1 c_13 ) (* 1 c_14 x ) (* 1 c_15 ) (* 1 c_15 y ) ) 0) )))
(assert (forall ((c Real) (x Real) (y Real) ) (=> (and (>= (+ (* (- 1) 1) (* (- 1) c c_9 ) (* (- 1) c_10 x ) (* (- 1) c_11 ) (* (- 1) c_11 y ) (* (- 1) c_8 ) (* (- 1) c_9 ) ) 0) (>= (+ (* (- 1) 1) (* 1 x ) (* (- 1) y ) ) 0) (>= (+ (* 1 c c_13 ) (* 1 c_12 ) (* 1 c_14 x ) (* 1 c_15 y ) ) 0) (>= (+ (* 1 c c_17 ) (* 1 c_16 ) (* 1 c_18 x ) (* 1 c_19 y ) ) 0) ) (>= (+ (* 1 c c_17 ) (* 1 c_16 ) (* 1 c_17 ) (* 1 c_18 x ) (* 1 c_19 ) (* 1 c_19 y ) ) 0) )))
(assert (forall ((c Real) (x Real) (y Real) ) (=> (and (>= (+ (* (- 1) 1) (* (- 1) c c_21 ) (* (- 1) c_20 ) (* 2 c_22 ) (* (- 1) c_22 x ) (* (- 1) c_23 y ) ) 0) (>= (+ (* (- 1) x ) (* 1 y ) ) 0) (>= (+ (* 1 c c_5 ) (* 1 c_4 ) (* 1 c_6 x ) (* 1 c_7 y ) ) 0) (>= (+ (* 1 c c_9 ) (* 1 c_10 x ) (* 1 c_11 y ) (* 1 c_8 ) ) 0) ) (>= (+ (* 1 c c_29 ) (* 1 c_28 ) (* (- 2) c_30 ) (* 1 c_30 x ) (* 1 c_31 y ) ) 0) )))
(assert (forall ((c Real) (x Real) (y Real) ) (=> (and (>= (+ (* (- 1) 1) (* (- 1) c c_21 ) (* (- 1) c_20 ) (* 2 c_22 ) (* (- 1) c_22 x ) (* (- 1) c_23 y ) ) 0) (>= (+ (* (- 1) x ) (* 1 y ) ) 0) (>= (+ (* 1 c c_5 ) (* 1 c_4 ) (* 1 c_6 x ) (* 1 c_7 y ) ) 0) (>= (+ (* 1 c c_9 ) (* 1 c_10 x ) (* 1 c_11 y ) (* 1 c_8 ) ) 0) ) (>= (+ (* 1 c c_33 ) (* 1 c_32 ) (* (- 2) c_34 ) (* 1 c_34 x ) (* 1 c_35 y ) ) 0) )))
(assert (forall ((c Real) (x Real) (y Real) ) (=> (and (>= (+ (* (- 1) 1) (* (- 1) c c_25 ) (* (- 1) c_24 ) (* 2 c_26 ) (* (- 1) c_26 x ) (* (- 1) c_27 y ) ) 0) (>= (+ (* (- 1) x ) (* 1 y ) ) 0) (>= (+ (* 1 c c_5 ) (* 1 c_4 ) (* 1 c_6 x ) (* 1 c_7 y ) ) 0) (>= (+ (* 1 c c_9 ) (* 1 c_10 x ) (* 1 c_11 y ) (* 1 c_8 ) ) 0) ) (>= (+ (* 1 c c_29 ) (* 1 c_28 ) (* (- 2) c_30 ) (* 1 c_30 x ) (* 1 c_31 y ) ) 0) )))
(assert (forall ((c Real) (x Real) (y Real) ) (=> (and (>= (+ (* (- 1) 1) (* (- 1) c c_25 ) (* (- 1) c_24 ) (* 2 c_26 ) (* (- 1) c_26 x ) (* (- 1) c_27 y ) ) 0) (>= (+ (* (- 1) x ) (* 1 y ) ) 0) (>= (+ (* 1 c c_5 ) (* 1 c_4 ) (* 1 c_6 x ) (* 1 c_7 y ) ) 0) (>= (+ (* 1 c c_9 ) (* 1 c_10 x ) (* 1 c_11 y ) (* 1 c_8 ) ) 0) ) (>= (+ (* 1 c c_33 ) (* 1 c_32 ) (* (- 2) c_34 ) (* 1 c_34 x ) (* 1 c_35 y ) ) 0) )))
(assert (forall ((c Real) (x Real) (y Real) ) (=> (and (>= (+ (* (- 1) 1) (* (- 1) c c_21 ) (* (- 1) c_20 ) (* 2 c_22 ) (* (- 1) c_22 x ) (* (- 1) c_23 y ) ) 0) (>= (+ (* (- 1) x ) (* 1 y ) ) 0) (>= (+ (* 1 c c_13 ) (* 1 c_12 ) (* 1 c_14 x ) (* 1 c_15 y ) ) 0) (>= (+ (* 1 c c_17 ) (* 1 c_16 ) (* 1 c_18 x ) (* 1 c_19 y ) ) 0) ) (>= (+ (* 1 c c_29 ) (* 1 c_28 ) (* (- 2) c_30 ) (* 1 c_30 x ) (* 1 c_31 y ) ) 0) )))
(assert (forall ((c Real) (x Real) (y Real) ) (=> (and (>= (+ (* (- 1) 1) (* (- 1) c c_21 ) (* (- 1) c_20 ) (* 2 c_22 ) (* (- 1) c_22 x ) (* (- 1) c_23 y ) ) 0) (>= (+ (* (- 1) x ) (* 1 y ) ) 0) (>= (+ (* 1 c c_13 ) (* 1 c_12 ) (* 1 c_14 x ) (* 1 c_15 y ) ) 0) (>= (+ (* 1 c c_17 ) (* 1 c_16 ) (* 1 c_18 x ) (* 1 c_19 y ) ) 0) ) (>= (+ (* 1 c c_33 ) (* 1 c_32 ) (* (- 2) c_34 ) (* 1 c_34 x ) (* 1 c_35 y ) ) 0) )))
(assert (forall ((c Real) (x Real) (y Real) ) (=> (and (>= (+ (* (- 1) 1) (* (- 1) c c_25 ) (* (- 1) c_24 ) (* 2 c_26 ) (* (- 1) c_26 x ) (* (- 1) c_27 y ) ) 0) (>= (+ (* (- 1) x ) (* 1 y ) ) 0) (>= (+ (* 1 c c_13 ) (* 1 c_12 ) (* 1 c_14 x ) (* 1 c_15 y ) ) 0) (>= (+ (* 1 c c_17 ) (* 1 c_16 ) (* 1 c_18 x ) (* 1 c_19 y ) ) 0) ) (>= (+ (* 1 c c_29 ) (* 1 c_28 ) (* (- 2) c_30 ) (* 1 c_30 x ) (* 1 c_31 y ) ) 0) )))
(assert (forall ((c Real) (x Real) (y Real) ) (=> (and (>= (+ (* (- 1) 1) (* (- 1) c c_25 ) (* (- 1) c_24 ) (* 2 c_26 ) (* (- 1) c_26 x ) (* (- 1) c_27 y ) ) 0) (>= (+ (* (- 1) x ) (* 1 y ) ) 0) (>= (+ (* 1 c c_13 ) (* 1 c_12 ) (* 1 c_14 x ) (* 1 c_15 y ) ) 0) (>= (+ (* 1 c c_17 ) (* 1 c_16 ) (* 1 c_18 x ) (* 1 c_19 y ) ) 0) ) (>= (+ (* 1 c c_33 ) (* 1 c_32 ) (* (- 2) c_34 ) (* 1 c_34 x ) (* 1 c_35 y ) ) 0) )))
(assert (forall ((c Real) (x Real) (y Real) ) (=> (and (>= (+ (* (- 1) 1) (* (- 1) c c_5 ) (* (- 1) c_4 ) (* (- 1) c_6 ) (* (- 1) c_6 x ) (* (- 1) c_7 ) ) 0) (>= (* 1 x ) 0) (>= (+ (* 1 c c_21 ) (* 1 c_20 ) (* 1 c_22 x ) (* 1 c_23 y ) ) 0) (>= (+ (* 1 c c_25 ) (* 1 c_24 ) (* 1 c_26 x ) (* 1 c_27 y ) ) 0) ) (>= (+ (* 1 c c_13 ) (* 1 c_12 ) (* 1 c_14 ) (* 1 c_14 x ) (* 1 c_15 ) ) 0) )))
(assert (forall ((c Real) (x Real) (y Real) ) (=> (and (>= (+ (* (- 1) 1) (* (- 1) c c_5 ) (* (- 1) c_4 ) (* (- 1) c_6 ) (* (- 1) c_6 x ) (* (- 1) c_7 ) ) 0) (>= (* 1 x ) 0) (>= (+ (* 1 c c_21 ) (* 1 c_20 ) (* 1 c_22 x ) (* 1 c_23 y ) ) 0) (>= (+ (* 1 c c_25 ) (* 1 c_24 ) (* 1 c_26 x ) (* 1 c_27 y ) ) 0) ) (>= (+ (* 1 c c_17 ) (* 1 c_16 ) (* 1 c_18 ) (* 1 c_18 x ) (* 1 c_19 ) ) 0) )))
(assert (forall ((c Real) (x Real) (y Real) ) (=> (and (>= (+ (* (- 1) 1) (* (- 1) c c_9 ) (* (- 1) c_10 ) (* (- 1) c_10 x ) (* (- 1) c_11 ) (* (- 1) c_8 ) ) 0) (>= (* 1 x ) 0) (>= (+ (* 1 c c_21 ) (* 1 c_20 ) (* 1 c_22 x ) (* 1 c_23 y ) ) 0) (>= (+ (* 1 c c_25 ) (* 1 c_24 ) (* 1 c_26 x ) (* 1 c_27 y ) ) 0) ) (>= (+ (* 1 c c_13 ) (* 1 c_12 ) (* 1 c_14 ) (* 1 c_14 x ) (* 1 c_15 ) ) 0) )))
(assert (forall ((c Real) (x Real) (y Real) ) (=> (and (>= (+ (* (- 1) 1) (* (- 1) c c_9 ) (* (- 1) c_10 ) (* (- 1) c_10 x ) (* (- 1) c_11 ) (* (- 1) c_8 ) ) 0) (>= (* 1 x ) 0) (>= (+ (* 1 c c_21 ) (* 1 c_20 ) (* 1 c_22 x ) (* 1 c_23 y ) ) 0) (>= (+ (* 1 c c_25 ) (* 1 c_24 ) (* 1 c_26 x ) (* 1 c_27 y ) ) 0) ) (>= (+ (* 1 c c_17 ) (* 1 c_16 ) (* 1 c_18 ) (* 1 c_18 x ) (* 1 c_19 ) ) 0) )))
(assert (forall ((c Real) (x Real) (y Real) ) (=> (and (>= (+ (* (- 1) 1) (* (- 1) c c_5 ) (* (- 1) c_4 ) (* (- 1) c_6 ) (* (- 1) c_6 x ) (* (- 1) c_7 ) ) 0) (>= (* 1 x ) 0) (>= (+ (* 1 c c_29 ) (* 1 c_28 ) (* 1 c_30 x ) (* 1 c_31 y ) ) 0) (>= (+ (* 1 c c_33 ) (* 1 c_32 ) (* 1 c_34 x ) (* 1 c_35 y ) ) 0) ) (>= (+ (* 1 c c_13 ) (* 1 c_12 ) (* 1 c_14 ) (* 1 c_14 x ) (* 1 c_15 ) ) 0) )))
(assert (forall ((c Real) (x Real) (y Real) ) (=> (and (>= (+ (* (- 1) 1) (* (- 1) c c_5 ) (* (- 1) c_4 ) (* (- 1) c_6 ) (* (- 1) c_6 x ) (* (- 1) c_7 ) ) 0) (>= (* 1 x ) 0) (>= (+ (* 1 c c_29 ) (* 1 c_28 ) (* 1 c_30 x ) (* 1 c_31 y ) ) 0) (>= (+ (* 1 c c_33 ) (* 1 c_32 ) (* 1 c_34 x ) (* 1 c_35 y ) ) 0) ) (>= (+ (* 1 c c_17 ) (* 1 c_16 ) (* 1 c_18 ) (* 1 c_18 x ) (* 1 c_19 ) ) 0) )))
(assert (forall ((c Real) (x Real) (y Real) ) (=> (and (>= (+ (* (- 1) 1) (* (- 1) c c_9 ) (* (- 1) c_10 ) (* (- 1) c_10 x ) (* (- 1) c_11 ) (* (- 1) c_8 ) ) 0) (>= (* 1 x ) 0) (>= (+ (* 1 c c_29 ) (* 1 c_28 ) (* 1 c_30 x ) (* 1 c_31 y ) ) 0) (>= (+ (* 1 c c_33 ) (* 1 c_32 ) (* 1 c_34 x ) (* 1 c_35 y ) ) 0) ) (>= (+ (* 1 c c_13 ) (* 1 c_12 ) (* 1 c_14 ) (* 1 c_14 x ) (* 1 c_15 ) ) 0) )))
(assert (forall ((c Real) (x Real) (y Real) ) (=> (and (>= (+ (* (- 1) 1) (* (- 1) c c_9 ) (* (- 1) c_10 ) (* (- 1) c_10 x ) (* (- 1) c_11 ) (* (- 1) c_8 ) ) 0) (>= (* 1 x ) 0) (>= (+ (* 1 c c_29 ) (* 1 c_28 ) (* 1 c_30 x ) (* 1 c_31 y ) ) 0) (>= (+ (* 1 c c_33 ) (* 1 c_32 ) (* 1 c_34 x ) (* 1 c_35 y ) ) 0) ) (>= (+ (* 1 c c_17 ) (* 1 c_16 ) (* 1 c_18 ) (* 1 c_18 x ) (* 1 c_19 ) ) 0) )))
(assert (forall ((c Real) (x Real) (y Real) ) (=> (and (>= (+ (* (- 1) 1) (* (- 1) x ) ) 0) (>= (+ (* 1 c c_21 ) (* 1 c_20 ) (* 1 c_22 x ) (* 1 c_23 y ) ) 0) (>= (+ (* 1 c c_25 ) (* 1 c_24 ) (* 1 c_26 x ) (* 1 c_27 y ) ) 0) ) (>= (* 1 c_0 ) 0) )))
(assert (forall ((c Real) (x Real) (y Real) ) (=> (and (>= (+ (* (- 1) 1) (* (- 1) x ) ) 0) (>= (+ (* 1 c c_29 ) (* 1 c_28 ) (* 1 c_30 x ) (* 1 c_31 y ) ) 0) (>= (+ (* 1 c c_33 ) (* 1 c_32 ) (* 1 c_34 x ) (* 1 c_35 y ) ) 0) ) (>= (* 1 c_0 ) 0) )))
(check-sat)
(get-model)

